proyfinal/src/viki/013/experimentInOfficeAgust.take6.output/2a821d8c-361e-4092-be12-8526fcf9fd72.als.dat
{'cnf.clauses': '118081',
 'cnf.totvars': '69608',
 'conflict literals': '141',
 'conflicts': '45',
 'decisions': '9773',
 'memused.mb': '16.65',
 'outcome': 'UNSAT',
 'propagations': '32207',
 'restarts': '1',
 'solver.msecs': 32,
 'task.msecs': 81}
