proyfinal/src/viki/013/experimentInOfficeAgust.take6.output/2a821d8c-361e-4092-be12-8526fcf9fd72.als.out
Reading from standard input... Use '--help' for help.
============================[ Problem Statistics ]=============================
|                                                                             |
|  Number of variables:         69608                                         |
|  Number of clauses:          118081                                         |
|  Parse time:                   0.02 s                                       |
|                                                                             |
============================[ Search Statistics ]==============================
| Conflicts |          ORIGINAL         |          LEARNT          | Progress |
|           |    Vars  Clauses Literals |    Limit  Clauses Lit/Cl |          |
===============================================================================
===============================================================================
restarts              : 1
conflicts             : 45             (1401 /sec)
decisions             : 9773           (0.00 % random) (304275 /sec)
propagations          : 32207          (1002740 /sec)
conflict literals     : 141            (0.00 % deleted)
Memory used           : 16.65 MB
CPU time              : 0.032119 s

UNSATISFIABLE
